log                 log.out
units               lj
dimension           2
atom_style          molecular
read_data           config.in
variable            rmin equal 1.12246204831                      # LJ minimum distance
variable            eps equal 5.00                                # LJ attraction strength [kT]
variable            Kbond equal 1000.0                            # bond constant [kT/sigma2]
variable            Kbend equal 800.0                             # bend constant [kT/sigma2]
variable            tstep equal 0.001000                          # simulation timestep size [seconds]
variable            run_time equal 2000.0                         # simulation run time [seconds]
variable            frame_rate equal 1.0                          # dumping interval [seconds]
variable            seed equal 1234                               # random number generator seed

variable            rstep equal 1.0/${tstep}                      # reaction interval [simulation steps]
variable            run_steps equal ${run_time}/${tstep}          # simulation run time [simulation steps]
variable            dump_time equal ${frame_rate}/${tstep}        # dumping interval [simulation steps]

special_bonds       lj 1.0 1.0 1.0
bond_style          harmonic
bond_coeff          1 ${Kbond} 1.0

angle_style         harmonic
angle_coeff         * ${Kbend} 180.0

pair_style          lj/cut 2.50
pair_coeff          1 1 ${eps} 1.00 ${rmin}
pair_coeff          1 2 ${eps} 1.00 ${rmin}
pair_coeff          2 2 ${eps} 1.00 2.50

fix                 fSwitch all type/transform ${rstep} 1 2 0.01 2 1 0.01
fix                 fLang all langevin 1.0 1.0 1.0 ${seed}
fix                 fNVE all nve

variable            realtime equal step*${tstep}

dump                1 all custom ${dump_time} traj.xyz id mol type x y z
dump_modify         1 format line "%d %d %d %.2f %.2f %.2f"

thermo              ${dump_time}
thermo_style        custom step v_realtime temp pe ke etotal epair ebond eangle press vol density atoms

compute             cBonds all property/local batom1 batom2 btype
compute             cBondDxys all bond/local engpot force dist

dump                2 all local ${dump_time} bonds.out c_cBonds[*] c_cBondDxys[*]
dump_modify         2 format line "%f %f %f %.2f %.2f %.2f"

fix                 twodim all enforce2d

timestep            ${tstep}
run                 ${run_steps}